NAME : pr136Preorder.782.tour
COMMENT : Length = 782
COMMENT : Found by LKH [Keld Helsgaun] Fri May  1 20:10:46 2020
TYPE : TOUR
DIMENSION : 136
TOUR_SECTION
1
17
19
28
27
7
8
2
16
20
32
15
9
10
26
25
21
14
3
11
12
4
13
22
34
23
24
33
36
45
46
35
47
56
68
57
58
55
48
44
43
49
60
59
67
70
78
77
88
94
93
89
82
79
80
69
81
90
102
91
92
101
104
113
114
103
115
124
133
125
126
134
123
116
112
111
127
128
122
105
117
121
135
129
130
110
109
118
120
136
131
132
119
107
108
106
99
97
98
85
73
74
84
86
96
95
100
87
83
71
76
75
72
65
63
64
52
39
40
51
53
62
61
66
54
50
37
42
41
38
31
29
30
18
5
6
-1
EOF
